50 112
14 29 1
7 18 3
7 31 2
6 24 2
7 13 1
11 32 1
4 32 1
9 28 2
8 17 2
6 15 10
8 8 1
6 26 2
5 22 2
12 27 1
6 16 3
10 20 1
13 16 2
7 14 4
6 21 2
7 26 2
8 16 2
12 22 1
8 35 1
10 11 1
11 22 1
11 20 1
8 10 1
4 17 2
11 21 1
8 29 2
7 24 4
9 14 2
5 12 2
3 6 2
9 22 1
6 23 2
4 15 2
8 18 4
7 28 4
7 22 4
10 15 3
7 7 1
7 16 3
7 11 1
9 27 1
7 10 2
11 18 4
11 11 4
7 20 2
8 20 6
50 100 
50 100 
50 100 
50 100 
50 100 
50 100 
50 100 
50 100 
50 100 
50 100 
50 100 
50 100 
50 100 
50 100 
50 100 
50 100 
50 100 
50 100 
50 100 
50 100 
50 100 
50 100 
50 100 
50 100 
50 100 
50 100 
50 100 
50 100 
50 100 
50 100 
50 100 
50 100 
50 100 
50 100 
50 100 
50 100 
50 100 
50 100 
50 100 
50 100 
50 100 
50 100 
50 100 
50 100 
50 100 
50 100 
50 100 
50 100 
50 100 
50 100 
50 100 
50 100 
50 100 
50 100 
50 100 
50 100 
50 100 
50 100 
50 100 
50 100 
50 100 
50 100 
50 100 
50 100 
50 100 
50 100 
50 100 
50 100 
50 100 
50 100 
50 100 
50 100 
50 100 
50 100 
50 100 
50 100 
50 100 
50 100 
50 100 
50 100 
50 100 
50 100 
50 100 
50 100 
50 100 
50 100 
50 100 
50 100 
50 100 
50 100 
50 100 
50 100 
50 100 
50 100 
50 100 
50 100 
50 100 
50 100 
50 100 
50 100 
50 100 
50 100 
50 100 
50 100 
50 100 
50 100 
50 100 
50 100 
50 100 
50 100 
50 100 
50 100 
